HUN,8,6,428
4,1,1,30,5,9,2,23,3,23,0,24
2,29,4,5,5,19,1,6,3,15,0,19
2,2,4,29,1,11,0,27,3,1,5,14
3,2,5,26,0,16,2,9,1,21,4,8
2,19,1,20,3,18,4,25,0,16,5,29
5,13,1,6,0,5,2,13,4,28,3,6
3,21,5,15,1,24,2,29,4,15,0,8
0,14,5,5,4,1,1,7,3,15,2,10
